
(set-logic ALL) 

(declare-datatype MyList ((Nil) (Cons (head Real) (tail MyList)) )) 
(declare-fun l0 () MyList) 
(declare-fun l1 () MyList) 
(declare-fun l2 () MyList) 
(declare-fun l3 () MyList) 
(declare-fun i0 () Real) 
(declare-fun i1 () Real) 
(assert (= l3 Nil) )
(assert (not (is-Nil Nil)) )
(assert (is-Nil l3) )
(assert (and (= l1 l3) (= l2 l0) (is-Cons l0)) )
(assert (not (is-Cons l2)) )
(assert (not (is-Nil Nil)) )
(assert (or (= l2 Nil) (= l1 Nil) (is-Cons l0) (= l0 Nil)) )
(assert (is-Nil Nil) )
(check-sat)
